25
37.91 28.36
38.08 29.94
38.25 31.52
38.42 33.1
38.59 34.68
15.41 33.38
44.22 24.58
88.28 38.91
27.46 49.06
5.67 42.56
98.21 1.76
93.08 32.86
12.83 49.78
13.75 48.57
14.67 47.36
15.59 46.15
16.51 44.94
17.43 43.73
18.35 42.52
42.46 11.36
15.79 49.43
71.03 19.48
96.49 4.5
22.07 28.27
38.4 28.53
